n_machines = 5;
n_resources = 8;
n_jobs = 40;
horizon = 1903;
LB = 380;
n_jobs_per_resource = [5, 5, 5, 5, 5, 5, 5, 5];
duration = [6, 92, 85, 92, 44, 84, 71, 17, 53, 94, 76, 11, 24, 96, 26, 6, 69, 63, 85, 36, 60, 21, 34, 33, 35, 55, 20, 74, 20, 55, 12, 40, 13, 23, 66, 66, 37, 18, 28, 63]